50

100 27 223
99 12 442
99 4 215
97 41 456
97 40 438
96 15 333
96 45 358
96 21 359
93 3 549
93 41 563
91 1 291
84 11 294
83 6 211
81 30 508
79 23 287
78 34 320
77 11 403
74 32 489
71 36 558
67 32 346
66 2 421
63 25 558
62 26 536
61 22 512
61 15 580
61 1 287
59 16 456
59 5 511
59 11 444
58 12 346
57 19 358
56 14 219
54 1 566
54 11 322
53 1 553
53 16 404
51 18 220
50 9 472
49 10 471
48 19 294
45 10 514
45 15 267
45 10 537
40 7 311
40 1 297
39 16 366
39 14 539
34 11 237
32 15 239
30 15 591
